100 3 100
11 72 70 51 17 31 77 96 37 77 20 25 7 66 39 2 57 73 2 8 72 31 47 47 94 97 30 98 76 89 50 39 13 21 90 30 4 20 78 41 97 50 18 4 69 9 7 78 82 61 86 6 93 33 53 39 83 35 89 11 76 40 51 89 13 93 72 17 13 2 11 63 5 29 19 74 39 78 4 73 40 42 32 85 27 85 76 10 73 65 22 49 5 25 91 70 18 15 88 32 
